XYZ: Al1                                
   4.0370684697003254   
     0.5000000000000000    0.5000000000000000    0.0000000000000000
     0.0000000000000000    0.5000000000000000    0.5000000000000000
     0.5000000000000000    0.0000000000000000    0.5000000000000000
   Al
     1
Direct
  0.0000000000000000  0.0000000000000000  0.0000000000000000
