XYZ: Cu1
1.0
1.812059 1.812059 0.0000000000
0.0000000000 1.812059 1.812059
1.812059 0.0000000000 1.812059
 Cu
 1
Direct
   0.0000000000    0.0000000000    0.0000000000      29     1       Cu  1
